DIMENSION: 202
76
75
1
74
68
67
84
85
48
49
50
95
96
100
112
111
109
107
99
108
110
104
103
105
106
119
120
123
121
124
131
37
128
127
129
130
39
38
40
118
36
42
41
46
47
45
44
43
35
33
32
31
34
53
52
55
54
51
30
56
57
60
61
58
59
62
66
65
63
64
72
71
69
70
73
18
11
12
10
9
17
16
3
2
5
4
8
6
7
13
14
15
19
21
20
26
28
27
29
22
23
24
137
138
142
25
146
154
152
153
155
202
201
200
199
197
151
150
149
148
147
145
144
143
139
140
141
185
184
136
134
133
132
126
122
125
167
168
101
114
113
116
115
117
102
156
88
94
98
97
93
92
87
86
83
89
90
91
157
158
159
163
160
164
165
169
170
135
171
186
187
188
190
192
191
198
193
194
196
195
183
182
181
180
178
172
174
173
175
176
177
189
179
166
161
162
82
80
81
79
77
